<number of tasks>
50

<cycle time>
1000

<order strength>
0.599


<task times>
1 361
2 301
3 282
4 55
5 468
6 135
7 94
8 112
9 113
10 455
11 52
12 145
13 122
14 172
15 88
16 113
17 280
18 32
19 237
20 132
21 125
22 344
23 39
24 256
25 60
26 257
27 37
28 76
29 377
30 120
31 206
32 161
33 73
34 270
35 495
36 88
37 237
38 216
39 57
40 356
41 50
42 363
43 496
44 269
45 270
46 254
47 108
48 161
49 257
50 223

<precedence relations>
1,6
1,9
2,5
2,6
2,7
2,8
2,9
3,5
3,6
3,7
3,8
3,9
4,6
4,10
6,11
7,10
8,10
8,11
9,10
9,11
10,12
10,13
10,14
10,15
11,12
11,13
12,18
12,19
12,22
13,16
13,17
14,40
15,33
16,23
16,24
16,25
16,30
17,22
17,27
19,20
19,21
19,26
20,34
20,39
21,39
22,29
22,31
23,33
23,40
24,37
25,28
26,30
27,31
28,33
29,32
29,33
31,33
31,34
32,36
32,38
32,42
33,37
33,39
33,41
34,35
34,36
34,40
34,44
35,43
36,43
36,49
37,44
37,48
38,47
40,46
41,43
41,44
41,45
42,43
42,46
42,49
43,47
43,48
43,50
44,47
44,49
45,46

<end>
